0 36 2
1 405 752
2 111 25
3 53 460
4 2 171
5 663 120
6 304 158
7 95 7
8 38 357
9 102 387
10 435 50
11 186 822
12 24 644
13 401 363
14 30 10
15 61 342
16 122 698
17 36 51
18 12 720
19 249 1
20 2 39
21 807 298
22 13 229
23 412 565
24 21 145
25 304 201
26 41 44
27 264 44
28 583 140
29 495 485
30 176 22
31 91 238
32 10 43
33 98 9
34 351 343
35 503 498
36 325 15
37 257 87
38 167 295
39 29 60
40 114 202
41 55 153
42 2 653
43 670 82
44 166 3
45 107 353